<?xml version = "1.0" encoding="UTF-8" standalone="yes"?>
<CPLEXSolution version="1.2">
 <header
   problemName="inst_10_cut_n12"
   objectiveValue="118.68181818181819"
   solutionTypeValue="1"
   solutionTypeString="basic"
   solutionStatusValue="1"
   solutionStatusString="optimal"
   solutionMethodString="primal"
   primalFeasible="1"
   dualFeasible="1"
   simplexIterations="0"
   writeLevel="1"/>
 <quality
   epRHS="9.9999999999999995e-07"
   epOpt="9.9999999999999995e-07"
   maxPrimalInfeas="0"
   maxDualInfeas="0"
   maxPrimalResidual="4.2632564145606011e-14"
   maxDualResidual="0"
   maxX="1"
   maxPi="0.98484848484848486"
   maxSlack="885.88235294117646"
   maxRedCost="65.242424242424235"
   kappa="15565.508582218117"/>
 <linearConstraints>
  <constraint name="c0" index="0" status="BS" slack="855.89037433155079" dual="-0"/>
  <constraint name="c1" index="1" status="LL" slack="0" dual="0.98484848484848486"/>
  <constraint name="c2" index="2" status="BS" slack="424.41443850267382" dual="-0"/>
  <constraint name="c3" index="3" status="BS" slack="269" dual="-0"/>
  <constraint name="c4" index="4" status="BS" slack="739.41978609625664" dual="-0"/>
  <constraint name="c5" index="5" status="BS" slack="847.96524064171126" dual="-0"/>
  <constraint name="c6" index="6" status="BS" slack="885.88235294117646" dual="-0"/>
  <constraint name="c7" index="7" status="BS" slack="251.40374331550802" dual="-0"/>
  <constraint name="c8" index="8" status="LL" slack="0" dual="-0"/>
  <constraint name="c9" index="9" status="BS" slack="172.76470588235296" dual="-0"/>
  <constraint name="c10" index="10" status="BS" slack="363.00534759358288" dual="-0"/>
  <constraint name="c11" index="11" status="BS" slack="143.96256684491979" dual="-0"/>
  <constraint name="cut_1" index="12" status="BS" slack="1.1096256684491452" dual="-0"/>
  <constraint name="cut_2" index="13" status="BS" slack="0.95187165775401095" dual="-0"/>
  <constraint name="cut_3" index="14" status="BS" slack="0.8288770053476533" dual="-0"/>
  <constraint name="cut_4" index="15" status="LL" slack="0" dual="0.12121212121212116"/>
  <constraint name="cut_5" index="16" status="BS" slack="1.0668449197860417" dual="-0"/>
  <constraint name="cut_6" index="17" status="BS" slack="1.0347593582886931" dual="-0"/>
  <constraint name="cut_7" index="18" status="BS" slack="1.3609625668449512" dual="-0"/>
  <constraint name="cut_8" index="19" status="BS" slack="0.35294117647060652" dual="-0"/>
  <constraint name="cut_9" index="20" status="BS" slack="0.23529411764706154" dual="-0"/>
  <constraint name="cut_10" index="21" status="BS" slack="0.47860962566845178" dual="-0"/>
  <constraint name="cut_11" index="22" status="BS" slack="0.99465240641709474" dual="-0"/>
  <constraint name="cut_12" index="23" status="BS" slack="0.037433155080219382" dual="-0"/>
 </linearConstraints>
 <variables>
  <variable name="x0" index="0" status="BS" value="0.008021390374331595" reducedCost="0"/>
  <variable name="x1" index="1" status="LL" value="0" reducedCost="-65.242424242424235"/>
  <variable name="x2" index="2" status="BS" value="0.048128342245989261" reducedCost="0"/>
  <variable name="x3" index="3" status="LL" value="0" reducedCost="-55.893939393939391"/>
  <variable name="x4" index="4" status="LL" value="0" reducedCost="-2.7424242424242422"/>
  <variable name="x5" index="5" status="UL" value="1" reducedCost="26.63636363636364"/>
  <variable name="x6" index="6" status="LL" value="0" reducedCost="-61.742424242424235"/>
  <variable name="x7" index="7" status="UL" value="1" reducedCost="15.242424242424246"/>
  <variable name="x8" index="8" status="LL" value="0" reducedCost="-23.181818181818187"/>
  <variable name="x9" index="9" status="LL" value="0" reducedCost="-9.7727272727272663"/>
  <variable name="x10" index="10" status="LL" value="0" reducedCost="-63.393939393939391"/>
  <variable name="x11" index="11" status="LL" value="0" reducedCost="-14.712121212121204"/>
  <variable name="s0" index="12" status="LL" value="0" reducedCost="0"/>
  <variable name="s1" index="13" status="LL" value="0" reducedCost="-0.98484848484848486"/>
  <variable name="s2" index="14" status="LL" value="0" reducedCost="0"/>
  <variable name="s3" index="15" status="LL" value="0" reducedCost="0"/>
  <variable name="s4" index="16" status="LL" value="0" reducedCost="0"/>
  <variable name="s5" index="17" status="LL" value="0" reducedCost="0"/>
  <variable name="s6" index="18" status="LL" value="0" reducedCost="0"/>
  <variable name="s7" index="19" status="LL" value="0" reducedCost="0"/>
  <variable name="s8" index="20" status="BS" value="0.2433155080213929" reducedCost="0"/>
  <variable name="s9" index="21" status="LL" value="0" reducedCost="0"/>
  <variable name="s10" index="22" status="LL" value="0" reducedCost="0"/>
  <variable name="s11" index="23" status="LL" value="0" reducedCost="0"/>
 </variables>
 <objectiveValues>
  <objective index="0" name="" value="118.68181818181819"/>
 </objectiveValues>
</CPLEXSolution>
